p cnf 21 10
a 1 2 3 0
e 4 5 0
a 6 0
e 7 0
a 8 0
e 9 10 11 0
a 12 13 0
e 14 15 0
a 16 0
e 17 0
a 18 0
e 19 0
a 20 21 0
16 1 13 21 -11 0
-21 -5 8 -11 9 0
-12 -7 -3 -2 15 0
-5 -1 -8 -9 -15 0
18 -4 -5 -16 0
21 11 -3 6 0
21 -17 15 0
-20 3 -17 -10 -5 0
-14 12 -5 15 -19 0
-7 21 -10 3 -18 0
